0 131 71 194 39 111 129 87 139 157 104 48 12 90 102 159 52 165 164 168 63 14 24 80 62 188 103 7 172 178 142 113 112 76 60 186 160 61 118 140 115 34 45 73 33 11 99 47 191 124 171 127 179 85 153 158 100 107 190 198 57 21 88 93 22 31 97 187 72 51 110 35 136 15 173 154 70 149 36 101 20 26 25 150 95 58 94 182 133 148 6 83 37 169 13 41 199 32 177 5 42 163 9 181 98 69 161 152 89 123 105 28 75 122 195 144 50 162 27 2 4 16 137 66 92 3 176 121 143 46 1 38 170 125 155 189 192 134 43 91 141 96 79 167 119 185 196 174 30 74 145 64 44 135 130 23 146 180 82 132 156 126 193 55 8 108 183 59 128 106 151 117 84 56 114 53 120 175 77 67 54 40 138 49 29 147 86 10 68 65 81 184 197 18 116 17 166 78 109 19